
  22   10
  10   10   10   10   10   10   10   10   10   10

   0   0   0   0   0   0   0   0   0   0   0   4 2 3 5 8 
  10  10  10  10  10  10  10  10  10  10  10   3 10 9 6 
   8  10  10  10  10  10  10  10  10  10  10   2 6 4 
   7  10  10  10  10  10  10  10  10  10  10   6 17 16 15 13 11 10 
  10  10  10  10  10  10  10  10  10  10  10   2 15 7 
   3  10  10  10  10  10  10  10  10  10  10   7 20 17 16 15 13 12 11 
   3  10  10  10  10  10  10  10  10  10  10   6 20 17 16 13 12 11 
   8  10  10  10  10  10  10  10  10  10  10   4 17 16 15 12 
   3  10  10  10  10  10  10  10  10  10  10   3 20 15 12 
   2  10  10  10  10  10  10  10  10  10  10   2 20 12 
   5  10  10  10  10  10  10  10  10  10  10   3 21 19 18 
   1  10  10  10  10  10  10  10  10  10  10   2 19 14 
   9  10  10  10  10  10  10  10  10  10  10   1 14 
   8  10  10  10  10  10  10  10  10  10  10   1 18 
   8  10  10  10  10  10  10  10  10  10  10   1 19 
   2  10  10  10  10  10  10  10  10  10  10   1 19 
   8  10  10  10  10  10  10  10  10  10  10   1 18 
   8  10  10  10  10  10  10  10  10  10  10   1 22
   7  10  10  10  10  10  10  10  10  10  10   1 22
   5  10  10  10  10  10  10  10  10  10  10   1 22
   3  10  10  10  10  10  10  10  10  10  10   1 22
   0   0   0   0   0   0   0   0   0   0   0   0 
